46 47 
94 87 
75 82 
91 59 
9 83 
16 58 
70 44 
23 57 
26 94 
57 18 
40 45 
17 31 
19 42 
10 0 
27 88 
67 25 
35 61 
12 62 
44 3 
74 5 
38 90 
63 61 
34 38 
18 60 
32 27 
30 24 
72 48 
8 44 
90 18 
44 69 
6 63 
94 94 
25 58 
8 21 
13 82 
26 3 
24 42 
64 10 
80 34 
71 65 
61 53 
41 86 
1 49 
30 43 
19 26 
64 78 
41 10 
24 18 
68 32 
39 81 
